c 3 - XORSAT
p cnf 10 40
2 4 6 0
-2 -4 6 0
-2 4 -6 0
2 -4 -6 0
-2 -8 -10 0
-2 8 10 0
2 -8 10 0
2 8 -10 0
-5 -4 -7 0
-5 4 7 0
5 -4 7 0
5 4 -7 0
1 8 9 0
-1 -8 9 0
-1 8 -9 0
1 -8 -9 0
-6 -5 -7 0
-6 5 7 0
6 -5 7 0
6 5 -7 0
-2 -1 -4 0
-2 1 4 0
2 -1 4 0
2 1 -4 0
1 3 10 0
-1 -3 10 0
-1 3 -10 0
1 -3 -10 0
7 10 5 0
-7 -10 5 0
-7 10 -5 0
7 -10 -5 0
-6 -3 -9 0
-6 3 9 0
6 -3 9 0
6 3 -9 0
-3 -8 -9 0
-3 8 9 0
3 -8 9 0
3 8 -9 0
